NAME : A-n33-k6.462432.tour
COMMENT : Length = 462432
COMMENT : Found by LKH [Keld Helsgaun] Sun Dec 17 18:34:38 2017
TYPE : TOUR
DIMENSION : 38
TOUR_SECTION
1
2
19
7
8
20
36
29
26
17
31
28
38
22
13
37
14
6
4
3
21
16
10
35
33
11
15
18
12
30
34
32
24
25
23
27
5
9
-1
EOF
